c 1 TankWar
c 2 Tank_Player1
c 3 Black_P1
c 4 Red_P1
c 5 Red_Tier1_P1
c 6 Yellow_Tier1_P1
c 7 Blue_Tier2_P1
c 8 Green_Tier2_P1
c 9 Tank_Player2
c 10 Black_P2
c 11 Red_P2
c 12 Red_Tier1_P2
c 13 Yellow_Tier1_P2
c 14 Blue_Tier2_P2
c 15 Green_Tier2_P2
c 16 mov
c 17 mov_0
c 18 mov_1
c 19 mov_2
c 20 mov_3
c 21 mov_4
c 22 tar
c 23 Hinderniss_Set
c 24 Power_Ups
c 25 Flower
c 26 Blue_Flower
c 27 Copy
c 28 Fire
c 29 Light_Bulb_Round
c 30 Green
c 31 Heart
c 32 Circle
c 33 Cow
c 34 Light_Bulb
c 35 Octagonal
c 36 Mushroom
c 37 Pumpkin_Pie
c 38 Ring
c 39 Ring_2
c 40 Ring_Oval
c 41 Ring_Oval_Small
c 42 Sponge
c 43 Spiral
c 44 Star_Oval
c 45 Star_Oval_Small
c 46 Star_Ring
c 47 Activate_Power_Up
c 48 Nr1
c 49 Nr2
c 50 Nr3
c 51 Nr4
c 52 Nr5
c 53 Nr6
c 54 Nr7
c 55 Nr8
c 56 Background
c 57 Default
c 58 Blue_White
c 59 Blue_White_Green
c 60 Purple_White
c 61 Glass
c 62 Lava
c 63 Limba
c 64 Old
c 65 Ov_Paper
c 66 Paper
c 67 Univ
c 68 Water
c 69 Water_2
c 70 rocketStyle
c 71 Rectangle
c 72 Oval
c 73 aa31
c 74 Portal
c 75 Nino
c 76 Sounds
c 77 Player1_Sound_Rotation
c 78 P1_Rot_Beep1
c 79 P1_Rot_Beep2
c 80 P1_Rot_Beep3
c 81 P1_Rot_Bleep1
c 82 P1_Rot_Buzzer
c 83 P1_Rot_Cash_register
c 84 P1_Rot_Cork
c 85 P1_Rot_Game_Win
c 86 P1_Rot_Drip
c 87 P1_Rot_Gorod
c 88 P1_Rot_Horn
c 89 P1_Rot_Laser_Trill
c 90 P1_Rot_Police_Siren
c 91 P1_Rot_Siren_1
c 92 P1_Rot_Siren_2
c 93 P1_Rot_yes
c 94 PLayer1_Sound_Movement
c 95 P1_Mov_Beep1
c 96 P1_Mov_Beep2
c 97 P1_Mov_Beep3
c 98 P1_Mov_Bleep1
c 99 P1_Mov_Buzzer
c 100 P1_Mov_Cash_Register
c 101 P1_Mov_Cork
c 102 P1_Mov_Game_Win
c 103 P1_Mov_Drip
c 104 P1_Mov_Gorod
c 105 P1_Mov_Horn
c 106 P1_Mov_LaserTrill
c 107 P1_Mov_Police_Siren
c 108 P1_Mov_Siren_1
c 109 P1_Mov_Siren2
c 110 P1_Mov_yes
c 111 Player2_Sound_Rotation
c 112 P2_Rot_Beep1
c 113 P2_Rot_Beep2
c 114 P2_Rot_Beep3
c 115 P2_Rot_Bleep1
c 116 P2_Rot_Buzzer
c 117 P2_Rot_Cash_Register
c 118 P2_Rot_Cork
c 119 P2_Rot_Game_Win
c 120 P2_Rot_Drip
c 121 P2_Rot_Gorod
c 122 P2_Rot_Horn
c 123 P2_Rot_Laser_Trill
c 124 P2_Rot_Police_Siren
c 125 P2_Rot_Siren_1
c 126 P2_Rot_Siren_2
c 127 P2_Rot_Yes
c 128 Player2_Sound_Movement
c 129 P2_Mov_Beep1
c 130 P2_Mov_Beep2
c 131 P2_Mov_Beep3
c 132 P2_Mov_Bleep1
c 133 P2_Mov_Buzzer
c 134 P2_Mov_Cah_Register
c 135 P2_Mov_cork
c 136 P2_Mov_Game_Win
c 137 P2_Mov_Drip
c 138 P2_Mov_Gorord
c 139 P2_Mov_Horn
c 140 P2_Mov_LaserTrill
c 141 P2_Mov_Police_Siren
c 142 P2_Mov_Siren_1
c 143 P2_Mov_Siren_2
c 144 P2_Mov_Yes
p cnf 144 769
1 0
1 -2 0
1 -9 0
1 -16 0
1 -22 0
1 -23 0
1 -24 0
1 -47 0
1 -56 0
1 -70 0
1 -76 0
2 -1 0
9 -1 0
16 -1 0
24 -1 0
56 -1 0
70 -1 0
76 -1 0
2 -3 0
2 -4 0
2 -5 0
2 -6 0
2 -7 0
2 -8 0
3 4 5 6 7 8 -2 0
-3 -4 0
-3 -5 0
-3 -6 0
-3 -7 0
-3 -8 0
-4 -5 0
-4 -6 0
-4 -7 0
-4 -8 0
-5 -6 0
-5 -7 0
-5 -8 0
-6 -7 0
-6 -8 0
-7 -8 0
9 -10 0
9 -11 0
9 -12 0
9 -13 0
9 -14 0
9 -15 0
10 11 12 13 14 15 -9 0
-10 -11 0
-10 -12 0
-10 -13 0
-10 -14 0
-10 -15 0
-11 -12 0
-11 -13 0
-11 -14 0
-11 -15 0
-12 -13 0
-12 -14 0
-12 -15 0
-13 -14 0
-13 -15 0
-14 -15 0
16 -17 0
16 -18 0
16 -19 0
16 -20 0
16 -21 0
17 18 19 20 21 -16 0
-17 -18 0
-17 -19 0
-17 -20 0
-17 -21 0
-18 -19 0
-18 -20 0
-18 -21 0
-19 -20 0
-19 -21 0
-20 -21 0
24 -25 0
24 -26 0
24 -27 0
24 -28 0
24 -29 0
24 -30 0
24 -31 0
24 -32 0
24 -33 0
24 -34 0
24 -35 0
24 -36 0
24 -37 0
24 -38 0
24 -39 0
24 -40 0
24 -41 0
24 -42 0
24 -43 0
24 -44 0
24 -45 0
24 -46 0
25 26 27 28 29 30 31 32 33 34 35 36 37 38 39 40 41 42 43 44 45 46 -24 0
47 -48 0
47 -49 0
47 -50 0
47 -51 0
47 -52 0
47 -53 0
47 -54 0
47 -55 0
56 -57 0
56 -58 0
56 -59 0
56 -60 0
56 -61 0
56 -62 0
56 -63 0
56 -64 0
56 -65 0
56 -66 0
56 -67 0
56 -68 0
56 -69 0
57 58 59 60 61 62 63 64 65 66 67 68 69 -56 0
-57 -58 0
-57 -59 0
-57 -60 0
-57 -61 0
-57 -62 0
-57 -63 0
-57 -64 0
-57 -65 0
-57 -66 0
-57 -67 0
-57 -68 0
-57 -69 0
-58 -59 0
-58 -60 0
-58 -61 0
-58 -62 0
-58 -63 0
-58 -64 0
-58 -65 0
-58 -66 0
-58 -67 0
-58 -68 0
-58 -69 0
-59 -60 0
-59 -61 0
-59 -62 0
-59 -63 0
-59 -64 0
-59 -65 0
-59 -66 0
-59 -67 0
-59 -68 0
-59 -69 0
-60 -61 0
-60 -62 0
-60 -63 0
-60 -64 0
-60 -65 0
-60 -66 0
-60 -67 0
-60 -68 0
-60 -69 0
-61 -62 0
-61 -63 0
-61 -64 0
-61 -65 0
-61 -66 0
-61 -67 0
-61 -68 0
-61 -69 0
-62 -63 0
-62 -64 0
-62 -65 0
-62 -66 0
-62 -67 0
-62 -68 0
-62 -69 0
-63 -64 0
-63 -65 0
-63 -66 0
-63 -67 0
-63 -68 0
-63 -69 0
-64 -65 0
-64 -66 0
-64 -67 0
-64 -68 0
-64 -69 0
-65 -66 0
-65 -67 0
-65 -68 0
-65 -69 0
-66 -67 0
-66 -68 0
-66 -69 0
-67 -68 0
-67 -69 0
-68 -69 0
70 -71 0
70 -72 0
70 -73 0
70 -74 0
70 -75 0
71 72 73 74 75 -70 0
-71 -72 0
-71 -73 0
-71 -74 0
-71 -75 0
-72 -73 0
-72 -74 0
-72 -75 0
-73 -74 0
-73 -75 0
-74 -75 0
76 -77 0
76 -94 0
76 -111 0
76 -128 0
77 -78 0
77 -79 0
77 -80 0
77 -81 0
77 -82 0
77 -83 0
77 -84 0
77 -85 0
77 -86 0
77 -87 0
77 -88 0
77 -89 0
77 -90 0
77 -91 0
77 -92 0
77 -93 0
78 79 80 81 82 83 84 85 86 87 88 89 90 91 92 93 -77 0
-78 -79 0
-78 -80 0
-78 -81 0
-78 -82 0
-78 -83 0
-78 -84 0
-78 -85 0
-78 -86 0
-78 -87 0
-78 -88 0
-78 -89 0
-78 -90 0
-78 -91 0
-78 -92 0
-78 -93 0
-79 -80 0
-79 -81 0
-79 -82 0
-79 -83 0
-79 -84 0
-79 -85 0
-79 -86 0
-79 -87 0
-79 -88 0
-79 -89 0
-79 -90 0
-79 -91 0
-79 -92 0
-79 -93 0
-80 -81 0
-80 -82 0
-80 -83 0
-80 -84 0
-80 -85 0
-80 -86 0
-80 -87 0
-80 -88 0
-80 -89 0
-80 -90 0
-80 -91 0
-80 -92 0
-80 -93 0
-81 -82 0
-81 -83 0
-81 -84 0
-81 -85 0
-81 -86 0
-81 -87 0
-81 -88 0
-81 -89 0
-81 -90 0
-81 -91 0
-81 -92 0
-81 -93 0
-82 -83 0
-82 -84 0
-82 -85 0
-82 -86 0
-82 -87 0
-82 -88 0
-82 -89 0
-82 -90 0
-82 -91 0
-82 -92 0
-82 -93 0
-83 -84 0
-83 -85 0
-83 -86 0
-83 -87 0
-83 -88 0
-83 -89 0
-83 -90 0
-83 -91 0
-83 -92 0
-83 -93 0
-84 -85 0
-84 -86 0
-84 -87 0
-84 -88 0
-84 -89 0
-84 -90 0
-84 -91 0
-84 -92 0
-84 -93 0
-85 -86 0
-85 -87 0
-85 -88 0
-85 -89 0
-85 -90 0
-85 -91 0
-85 -92 0
-85 -93 0
-86 -87 0
-86 -88 0
-86 -89 0
-86 -90 0
-86 -91 0
-86 -92 0
-86 -93 0
-87 -88 0
-87 -89 0
-87 -90 0
-87 -91 0
-87 -92 0
-87 -93 0
-88 -89 0
-88 -90 0
-88 -91 0
-88 -92 0
-88 -93 0
-89 -90 0
-89 -91 0
-89 -92 0
-89 -93 0
-90 -91 0
-90 -92 0
-90 -93 0
-91 -92 0
-91 -93 0
-92 -93 0
94 -95 0
94 -96 0
94 -97 0
94 -98 0
94 -99 0
94 -100 0
94 -101 0
94 -102 0
94 -103 0
94 -104 0
94 -105 0
94 -106 0
94 -107 0
94 -108 0
94 -109 0
94 -110 0
95 96 97 98 99 100 101 102 103 104 105 106 107 108 109 110 -94 0
-95 -96 0
-95 -97 0
-95 -98 0
-95 -99 0
-95 -100 0
-95 -101 0
-95 -102 0
-95 -103 0
-95 -104 0
-95 -105 0
-95 -106 0
-95 -107 0
-95 -108 0
-95 -109 0
-95 -110 0
-96 -97 0
-96 -98 0
-96 -99 0
-96 -100 0
-96 -101 0
-96 -102 0
-96 -103 0
-96 -104 0
-96 -105 0
-96 -106 0
-96 -107 0
-96 -108 0
-96 -109 0
-96 -110 0
-97 -98 0
-97 -99 0
-97 -100 0
-97 -101 0
-97 -102 0
-97 -103 0
-97 -104 0
-97 -105 0
-97 -106 0
-97 -107 0
-97 -108 0
-97 -109 0
-97 -110 0
-98 -99 0
-98 -100 0
-98 -101 0
-98 -102 0
-98 -103 0
-98 -104 0
-98 -105 0
-98 -106 0
-98 -107 0
-98 -108 0
-98 -109 0
-98 -110 0
-99 -100 0
-99 -101 0
-99 -102 0
-99 -103 0
-99 -104 0
-99 -105 0
-99 -106 0
-99 -107 0
-99 -108 0
-99 -109 0
-99 -110 0
-100 -101 0
-100 -102 0
-100 -103 0
-100 -104 0
-100 -105 0
-100 -106 0
-100 -107 0
-100 -108 0
-100 -109 0
-100 -110 0
-101 -102 0
-101 -103 0
-101 -104 0
-101 -105 0
-101 -106 0
-101 -107 0
-101 -108 0
-101 -109 0
-101 -110 0
-102 -103 0
-102 -104 0
-102 -105 0
-102 -106 0
-102 -107 0
-102 -108 0
-102 -109 0
-102 -110 0
-103 -104 0
-103 -105 0
-103 -106 0
-103 -107 0
-103 -108 0
-103 -109 0
-103 -110 0
-104 -105 0
-104 -106 0
-104 -107 0
-104 -108 0
-104 -109 0
-104 -110 0
-105 -106 0
-105 -107 0
-105 -108 0
-105 -109 0
-105 -110 0
-106 -107 0
-106 -108 0
-106 -109 0
-106 -110 0
-107 -108 0
-107 -109 0
-107 -110 0
-108 -109 0
-108 -110 0
-109 -110 0
111 -112 0
111 -113 0
111 -114 0
111 -115 0
111 -116 0
111 -117 0
111 -118 0
111 -119 0
111 -120 0
111 -121 0
111 -122 0
111 -123 0
111 -124 0
111 -125 0
111 -126 0
111 -127 0
112 113 114 115 116 117 118 119 120 121 122 123 124 125 126 127 -111 0
-112 -113 0
-112 -114 0
-112 -115 0
-112 -116 0
-112 -117 0
-112 -118 0
-112 -119 0
-112 -120 0
-112 -121 0
-112 -122 0
-112 -123 0
-112 -124 0
-112 -125 0
-112 -126 0
-112 -127 0
-113 -114 0
-113 -115 0
-113 -116 0
-113 -117 0
-113 -118 0
-113 -119 0
-113 -120 0
-113 -121 0
-113 -122 0
-113 -123 0
-113 -124 0
-113 -125 0
-113 -126 0
-113 -127 0
-114 -115 0
-114 -116 0
-114 -117 0
-114 -118 0
-114 -119 0
-114 -120 0
-114 -121 0
-114 -122 0
-114 -123 0
-114 -124 0
-114 -125 0
-114 -126 0
-114 -127 0
-115 -116 0
-115 -117 0
-115 -118 0
-115 -119 0
-115 -120 0
-115 -121 0
-115 -122 0
-115 -123 0
-115 -124 0
-115 -125 0
-115 -126 0
-115 -127 0
-116 -117 0
-116 -118 0
-116 -119 0
-116 -120 0
-116 -121 0
-116 -122 0
-116 -123 0
-116 -124 0
-116 -125 0
-116 -126 0
-116 -127 0
-117 -118 0
-117 -119 0
-117 -120 0
-117 -121 0
-117 -122 0
-117 -123 0
-117 -124 0
-117 -125 0
-117 -126 0
-117 -127 0
-118 -119 0
-118 -120 0
-118 -121 0
-118 -122 0
-118 -123 0
-118 -124 0
-118 -125 0
-118 -126 0
-118 -127 0
-119 -120 0
-119 -121 0
-119 -122 0
-119 -123 0
-119 -124 0
-119 -125 0
-119 -126 0
-119 -127 0
-120 -121 0
-120 -122 0
-120 -123 0
-120 -124 0
-120 -125 0
-120 -126 0
-120 -127 0
-121 -122 0
-121 -123 0
-121 -124 0
-121 -125 0
-121 -126 0
-121 -127 0
-122 -123 0
-122 -124 0
-122 -125 0
-122 -126 0
-122 -127 0
-123 -124 0
-123 -125 0
-123 -126 0
-123 -127 0
-124 -125 0
-124 -126 0
-124 -127 0
-125 -126 0
-125 -127 0
-126 -127 0
128 -129 0
128 -130 0
128 -131 0
128 -132 0
128 -133 0
128 -134 0
128 -135 0
128 -136 0
128 -137 0
128 -138 0
128 -139 0
128 -140 0
128 -141 0
128 -142 0
128 -143 0
128 -144 0
129 130 131 132 133 134 135 136 137 138 139 140 141 142 143 144 -128 0
-129 -130 0
-129 -131 0
-129 -132 0
-129 -133 0
-129 -134 0
-129 -135 0
-129 -136 0
-129 -137 0
-129 -138 0
-129 -139 0
-129 -140 0
-129 -141 0
-129 -142 0
-129 -143 0
-129 -144 0
-130 -131 0
-130 -132 0
-130 -133 0
-130 -134 0
-130 -135 0
-130 -136 0
-130 -137 0
-130 -138 0
-130 -139 0
-130 -140 0
-130 -141 0
-130 -142 0
-130 -143 0
-130 -144 0
-131 -132 0
-131 -133 0
-131 -134 0
-131 -135 0
-131 -136 0
-131 -137 0
-131 -138 0
-131 -139 0
-131 -140 0
-131 -141 0
-131 -142 0
-131 -143 0
-131 -144 0
-132 -133 0
-132 -134 0
-132 -135 0
-132 -136 0
-132 -137 0
-132 -138 0
-132 -139 0
-132 -140 0
-132 -141 0
-132 -142 0
-132 -143 0
-132 -144 0
-133 -134 0
-133 -135 0
-133 -136 0
-133 -137 0
-133 -138 0
-133 -139 0
-133 -140 0
-133 -141 0
-133 -142 0
-133 -143 0
-133 -144 0
-134 -135 0
-134 -136 0
-134 -137 0
-134 -138 0
-134 -139 0
-134 -140 0
-134 -141 0
-134 -142 0
-134 -143 0
-134 -144 0
-135 -136 0
-135 -137 0
-135 -138 0
-135 -139 0
-135 -140 0
-135 -141 0
-135 -142 0
-135 -143 0
-135 -144 0
-136 -137 0
-136 -138 0
-136 -139 0
-136 -140 0
-136 -141 0
-136 -142 0
-136 -143 0
-136 -144 0
-137 -138 0
-137 -139 0
-137 -140 0
-137 -141 0
-137 -142 0
-137 -143 0
-137 -144 0
-138 -139 0
-138 -140 0
-138 -141 0
-138 -142 0
-138 -143 0
-138 -144 0
-139 -140 0
-139 -141 0
-139 -142 0
-139 -143 0
-139 -144 0
-140 -141 0
-140 -142 0
-140 -143 0
-140 -144 0
-141 -142 0
-141 -143 0
-141 -144 0
-142 -143 0
-142 -144 0
-143 -144 0
